(set-info :source  loris-7.ddns.comp.nus.edu.sg/~project/hip/) 
;Variables declarations
(declare-fun res () Int)
(declare-fun v_int_27_3565_primed () Int)
(declare-fun x () Int)
(declare-fun x_primed () Int)
(declare-fun v_bool_24_3566_primed () Int)
(declare-fun n () Int)
(declare-fun m () Int)
(declare-fun Anon_3949 () Int)
(declare-fun Anon_3933 () Int)
(declare-fun p_3950 () Int)
(declare-fun p_3934 () Int)
(declare-fun q_3953 () Int)
(declare-fun q_3937 () Int)
(declare-fun size1_3951 () Int)
(declare-fun size1_3935 () Int)
(declare-fun height1_3936 () Int)
(declare-fun size2_3954 () Int)
(declare-fun size2_3938 () Int)
(declare-fun height2_3939 () Int)
(declare-fun height_3932 () Int)
(declare-fun height1_3952 () Int)
(declare-fun height2_3955 () Int)
;Relations declarations
;Axioms assertions
;Antecedent
(assert (= res v_int_27_3565_primed))
(assert (= v_int_27_3565_primed height_3932))
(assert (= x_primed x))
(assert (> x_primed 0))
(assert (not (> v_bool_24_3566_primed 0)))
(assert (= height_3932 n))
(assert (exists ((max_33 Int)) (and (= n (+ 1 max_33)) (or (and (= max_33 height1_3936) (>= height1_3936 height2_3939)) (and (= max_33 height2_3939) (< height1_3936 height2_3939))))))
(assert (<= height1_3936 (+ 1 height2_3939)))
(assert (<= height2_3939 (+ 1 height1_3936)))
(assert (= m (+ (+ size2_3938 1) size1_3935)))
(assert (= Anon_3949 Anon_3933))
(assert (= p_3950 p_3934))
(assert (= q_3953 q_3937))
(assert (= size1_3951 size1_3935))
(assert (= height1_3952 height1_3936))
(assert (= size2_3954 size2_3938))
(assert (= height2_3955 height2_3939))
(assert (exists ((max_33 Int)) (and (= height_3932 (+ 1 max_33)) (or (and (= max_33 height1_3952) (>= height1_3952 height2_3955)) (and (= max_33 height2_3955) (< height1_3952 height2_3955))))))
;Negation of Consequence
(assert (not false))
(check-sat)